# Executing instances/MDG-a/MDG-a_39_n2000_m200.txt|none|1

==================== CONFIGURAÇÃO DO SOLVER ====================
[MDPModel] Instance: MDG-a_39_n2000_m200
[MDPModel] Configuração: none
[MDPModel] Execução: 1
[MDPModel] n=2000, m=200
[MDPModel] ✓ Configurações de preservação de estratégias aplicadas
Version identifier: 22.1.1.0 | 2022-11-28 | 9160aff4d
CPXPARAM_ClockType                               1
CPXPARAM_Threads                                 1
CPXPARAM_MIP_Strategy_File                       3
CPXPARAM_TimeLimit                               600
CPXPARAM_WorkMem                                 0
CPXPARAM_MIP_Tolerances_Integrality              1.0000000000000001e-09
CPXPARAM_WorkDir                                 "/tmp/cplex_workdir_1755488625403070868"
Tried aggregator 1 time.
MIP Presolve eliminated 3998002 rows and 4000002 columns.
MIP Presolve modified 1781 coefficients.
Reduced MIP has 3997 rows, 3998 columns, and 1824939 nonzeros.
Reduced MIP has 2000 binaries, 0 generals, 0 SOSs, and 0 indicators.
Presolve time = 6.65 sec. (3452.32 ticks)
Found incumbent of value 0.000000 after 7.92 sec. (3925.59 ticks)
Probing time = 0.02 sec. (17.41 ticks)
Tried aggregator 1 time.
Detecting symmetries...
Reduced MIP has 3997 rows, 3998 columns, and 1824939 nonzeros.
Reduced MIP has 2000 binaries, 1998 generals, 0 SOSs, and 0 indicators.
Presolve time = 1.92 sec. (664.20 ticks)
Probing time = 0.03 sec. (17.36 ticks)
MIP emphasis: balance optimality and feasibility.
MIP search method: dynamic search.
Parallel mode: none, using 1 thread.
Root relaxation solution time = 66.05 sec. (46346.45 ticks)

        Nodes                                         Cuts/
   Node  Left     Objective  IInf  Best Integer    Best Bound    ItCnt     Gap

*     0+    0                            0.0000  3354261.0000              --- 
      0     0   385749.6437  3969        0.0000   385749.6437     9363     --- 
      0     0   385728.8676  3985        0.0000     Cuts: 220     9411     --- 
      0     0   385708.1844  3992        0.0000      Cuts: 66     9447     --- 
      0     0   385708.0581  3998        0.0000      Cuts: 22     9456     --- 
Heuristic still looking.
Heuristic still looking.
Heuristic still looking.
Detecting symmetries...
      0     2   385708.0581  3998        0.0000   385685.0862     9456     --- 
Elapsed time = 524.75 sec. (578229.20 ticks, tree = 0.01 MB, solutions = 1)
      2     4   384488.5503  3997        0.0000   385666.5525     9471     --- 
      3     5   385666.5525  3994        0.0000   385646.7119     9472     --- 
      5     7   385623.1705  3990        0.0000   385622.5470     9475     --- 
      6     8   384402.5807  3991        0.0000   385621.2357     9534     --- 
      7     9   385597.8366  3988        0.0000   385621.2357     9535     --- 
      8    10   384429.0677  3989        0.0000   385621.2357     9575     --- 
      9    11   385574.3552  3986        0.0000   385621.2357     9577     --- 
     10    12   384341.8142  3987        0.0000   385621.2357     9606     --- 
     11    13   385546.6690  3984        0.0000   385621.2357     9607     --- 
Began writing nodes to disk (directory /tmp/cplex_workdir_1755488625403070868/cpxjabpy4 created)

Flow cuts applied:  2
Mixed integer rounding cuts applied:  31
Gomory fractional cuts applied:  2

Root node processing (before b&c):
  Real time             =  525.13 sec. (578242.85 ticks)
Sequential b&c:
  Real time             =   75.36 sec. (148135.81 ticks)
                          ------------
Total (root+branch&cut) =  600.49 sec. (726378.65 ticks)
----- END ----
LB     : 385621
UB     : 0
NODES  : 12
GAP OPT (%)  : 0.00%
------------------
INSTANCE_NAME      : MDG-a_39_n2000_m200
N_VALUE            : 2000
M_VALUE            : 200
CONFIG_VALUE       : none
EXEC_NUMBER        : 1
TIME               : 608.54
IS_SOLVED          : 1
HEURISTIC_SOLUTION : 113878
SOLUTION           : 0
HEURISTIC GAP (%)  : -0.28%
------------------
SOLUTION ELEMENTS: 0 1 2 3 4 5 6 7 8 9 10 11 12 13 14 15 16 17 18 19 20 21 22 23 24 25 26 27 28 29 30 31 32 33 34 35 36 37 38 39 40 41 42 43 44 45 46 47 48 49 50 51 52 53 54 55 56 57 58 59 60 61 62 63 64 65 66 67 68 69 70 71 72 73 74 75 76 77 78 79 80 81 82 83 84 85 86 87 88 89 90 91 92 93 94 95 96 97 98 99 100 101 102 103 104 105 106 107 108 109 110 111 112 113 114 115 116 117 118 119 120 121 122 123 124 125 126 127 128 129 130 131 132 133 134 135 136 137 138 139 140 141 142 143 144 145 146 147 148 149 150 151 152 153 154 155 156 157 158 159 160 161 162 163 164 165 166 167 168 169 170 171 172 173 174 175 176 177 178 179 180 181 182 183 184 185 186 187 188 189 190 191 192 193 194 195 196 197 198 199 
